generated by phonopy
   1.0
    12.7455173141819724    0.0000000000000000    0.0000000000000000
     0.0000000000000000   12.7455173141819724    0.0000000000000000
     0.0000000000000000    0.0000000000000000   12.7455173141819724
Sn Si Mg
   1   31   64
Direct
  0.0000000000000000  0.0000000000000000  0.0000000000000000
  0.2513216665686908  0.2513216665686908  0.0000000000000000
  0.2513216665686908  0.0000000000000000  0.2513216665686908
  0.0000000000000000  0.2513216665686908  0.2513216665686908
  0.0000000000000000  0.0000000000000000  0.5000000000000000
  0.2500494170663016  0.2500494170663016  0.5000000000000000
  0.2513216665686908  0.0000000000000000  0.7486783334312948
  0.0000000000000000  0.2513216665686908  0.7486783334312948
  0.0000000000000000  0.5000000000000000  0.0000000000000000
  0.2513216665686908  0.7486783334312948  0.0000000000000000
  0.2500494170663016  0.5000000000000000  0.2500494170663016
  0.0000000000000000  0.7486783334312948  0.2513216665686908
  0.0000000000000000  0.5000000000000000  0.5000000000000000
  0.2500494170663016  0.7499505829336838  0.5000000000000000
  0.2500494170663016  0.5000000000000000  0.7499505829336838
  0.0000000000000000  0.7486783334312948  0.7486783334312948
  0.5000000000000000  0.0000000000000000  0.0000000000000000
  0.7486783334312948  0.2513216665686908  0.0000000000000000
  0.7486783334312948  0.0000000000000000  0.2513216665686908
  0.5000000000000000  0.2500494170663016  0.2500494170663016
  0.5000000000000000  0.0000000000000000  0.5000000000000000
  0.7499505829336838  0.2500494170663016  0.5000000000000000
  0.7486783334312948  0.0000000000000000  0.7486783334312948
  0.5000000000000000  0.2500494170663016  0.7499505829336838
  0.5000000000000000  0.5000000000000000  0.0000000000000000
  0.7486783334312948  0.7486783334312948  0.0000000000000000
  0.7499505829336838  0.5000000000000000  0.2500494170663016
  0.5000000000000000  0.7499505829336838  0.2500494170663016
  0.5000000000000000  0.5000000000000000  0.5000000000000000
  0.7499505829336838  0.7499505829336838  0.5000000000000000
  0.7499505829336838  0.5000000000000000  0.7499505829336838
  0.5000000000000000  0.7499505829336838  0.7499505829336838
  0.1294085528692278  0.1294085528692278  0.1294085528692278
  0.3757396361058686  0.1250224873984347  0.1250224873984347
  0.1250224873984347  0.3757396361058686  0.1250224873984347
  0.3753985767959047  0.3753985767959047  0.1246477238826249
  0.1250224873984347  0.1250224873984347  0.3757396361058686
  0.3753985767959047  0.1246477238826249  0.3753985767959047
  0.1246477238826249  0.3753985767959047  0.3753985767959047
  0.3748935097297452  0.3748935097297452  0.3748935097297452
  0.1250224873984347  0.1250224873984347  0.6242603638941311
  0.3753985767959047  0.1246477238826249  0.6246014232040954
  0.1246477238826249  0.3753985767959047  0.6246014232040954
  0.3748935097297452  0.3748935097297452  0.6251064902702548
  0.1294085528692278  0.1294085528692278  0.8705914471307722
  0.3757396361058686  0.1250224873984347  0.8749775126015653
  0.1250224873984347  0.3757396361058686  0.8749775126015653
  0.3753985767959047  0.3753985767959047  0.8753522761173755
  0.1250224873984347  0.6242603638941311  0.1250224873984347
  0.3753985767959047  0.6246014232040954  0.1246477238826249
  0.1294085528692278  0.8705914471307722  0.1294085528692278
  0.3757396361058686  0.8749775126015653  0.1250224873984347
  0.1246477238826249  0.6246014232040954  0.3753985767959047
  0.3748935097297452  0.6251064902702548  0.3748935097297452
  0.1250224873984347  0.8749775126015653  0.3757396361058686
  0.3753985767959047  0.8753522761173755  0.3753985767959047
  0.1246477238826249  0.6246014232040954  0.6246014232040954
  0.3748935097297452  0.6251064902702548  0.6251064902702548
  0.1250224873984347  0.8749775126015653  0.6242603638941311
  0.3753985767959047  0.8753522761173755  0.6246014232040954
  0.1250224873984347  0.6242603638941311  0.8749775126015653
  0.3753985767959047  0.6246014232040954  0.8753522761173755
  0.1294085528692278  0.8705914471307722  0.8705914471307722
  0.3757396361058686  0.8749775126015653  0.8749775126015653
  0.6242603638941311  0.1250224873984347  0.1250224873984347
  0.8705914471307722  0.1294085528692278  0.1294085528692278
  0.6246014232040954  0.3753985767959047  0.1246477238826249
  0.8749775126015653  0.3757396361058686  0.1250224873984347
  0.6246014232040954  0.1246477238826249  0.3753985767959047
  0.8749775126015653  0.1250224873984347  0.3757396361058686
  0.6251064902702548  0.3748935097297452  0.3748935097297452
  0.8753522761173755  0.3753985767959047  0.3753985767959047
  0.6246014232040954  0.1246477238826249  0.6246014232040954
  0.8749775126015653  0.1250224873984347  0.6242603638941311
  0.6251064902702548  0.3748935097297452  0.6251064902702548
  0.8753522761173755  0.3753985767959047  0.6246014232040954
  0.6242603638941311  0.1250224873984347  0.8749775126015653
  0.8705914471307722  0.1294085528692278  0.8705914471307722
  0.6246014232040954  0.3753985767959047  0.8753522761173755
  0.8749775126015653  0.3757396361058686  0.8749775126015653
  0.6246014232040954  0.6246014232040954  0.1246477238826249
  0.8749775126015653  0.6242603638941311  0.1250224873984347
  0.6242603638941311  0.8749775126015653  0.1250224873984347
  0.8705914471307722  0.8705914471307722  0.1294085528692278
  0.6251064902702548  0.6251064902702548  0.3748935097297452
  0.8753522761173755  0.6246014232040954  0.3753985767959047
  0.6246014232040954  0.8753522761173755  0.3753985767959047
  0.8749775126015653  0.8749775126015653  0.3757396361058686
  0.6251064902702548  0.6251064902702548  0.6251064902702548
  0.8753522761173755  0.6246014232040954  0.6246014232040954
  0.6246014232040954  0.8753522761173755  0.6246014232040954
  0.8749775126015653  0.8749775126015653  0.6242603638941311
  0.6246014232040954  0.6246014232040954  0.8753522761173755
  0.8749775126015653  0.6242603638941311  0.8749775126015653
  0.6242603638941311  0.8749775126015653  0.8749775126015653
  0.8705914471307722  0.8705914471307722  0.8705914471307722
