generated by phonopy
   1.0
    12.7459878133025946    0.0000000000000000    0.0000000000000000
     0.0000000000000000   12.7459878133025946    0.0000000000000000
     0.0000000000000000    0.0000000000000000   12.7459878133025946
Sn Si Mg
   1   31   64
Direct
  0.0000000000000000  0.0000000000000000  0.0000000000000000
  0.5000000000000000  0.0000000000000000  0.0000000000000000
  0.0000000000000000  0.5000000000000000  0.0000000000000000
  0.5000000000000000  0.5000000000000000  0.0000000000000000
  0.0000000000000000  0.0000000000000000  0.5000000000000000
  0.5000000000000000  0.0000000000000000  0.5000000000000000
  0.0000000000000000  0.5000000000000000  0.5000000000000000
  0.5000000000000000  0.5000000000000000  0.5000000000000000
  0.2511987010220566  0.2511987010220566  0.0000000000000000
  0.7488012989779429  0.2511987010220566  0.0000000000000000
  0.2511987010220566  0.7488012989779429  0.0000000000000000
  0.7488012989779429  0.7488012989779429  0.0000000000000000
  0.2500156652997643  0.2500156652997643  0.5000000000000000
  0.7499843347002357  0.2500156652997643  0.5000000000000000
  0.2500156652997643  0.7499843347002357  0.5000000000000000
  0.7499843347002357  0.7499843347002357  0.5000000000000000
  0.2511987010220566  0.0000000000000000  0.2511987010220566
  0.7488012989779429  0.0000000000000000  0.2511987010220566
  0.2500156652997643  0.5000000000000000  0.2500156652997643
  0.7499843347002357  0.5000000000000000  0.2500156652997643
  0.2511987010220566  0.0000000000000000  0.7488012989779429
  0.7488012989779429  0.0000000000000000  0.7488012989779429
  0.2500156652997643  0.5000000000000000  0.7499843347002357
  0.7499843347002357  0.5000000000000000  0.7499843347002357
  0.0000000000000000  0.2511987010220566  0.2511987010220566
  0.5000000000000000  0.2500156652997643  0.2500156652997643
  0.0000000000000000  0.7488012989779429  0.2511987010220566
  0.5000000000000000  0.7499843347002357  0.2500156652997643
  0.0000000000000000  0.2511987010220566  0.7488012989779429
  0.5000000000000000  0.2500156652997643  0.7499843347002357
  0.0000000000000000  0.7488012989779429  0.7488012989779429
  0.5000000000000000  0.7499843347002357  0.7499843347002357
  0.1293813488937643  0.1293813488937643  0.1293813488937643
  0.6243518025802206  0.1249824656990471  0.1249824656990471
  0.1249824656990471  0.6243518025802206  0.1249824656990471
  0.6246700099486571  0.6246700099486571  0.1246313838102067
  0.1249824656990471  0.1249824656990471  0.6243518025802206
  0.6246700099486571  0.1246313838102067  0.6246700099486571
  0.1246313838102067  0.6246700099486571  0.6246700099486571
  0.6250715587274132  0.6250715587274132  0.6250715587274132
  0.3756481974197797  0.1249824656990471  0.1249824656990471
  0.8706186511062357  0.1293813488937643  0.1293813488937643
  0.3753299900513430  0.6246700099486571  0.1246313838102067
  0.8750175343009526  0.6243518025802206  0.1249824656990471
  0.3753299900513430  0.1246313838102067  0.6246700099486571
  0.8750175343009526  0.1249824656990471  0.6243518025802206
  0.3749284412725865  0.6250715587274132  0.6250715587274132
  0.8753686161897936  0.6246700099486571  0.6246700099486571
  0.1249824656990471  0.3756481974197797  0.1249824656990471
  0.6246700099486571  0.3753299900513430  0.1246313838102067
  0.1293813488937643  0.8706186511062357  0.1293813488937643
  0.6243518025802206  0.8750175343009526  0.1249824656990471
  0.1246313838102067  0.3753299900513430  0.6246700099486571
  0.6250715587274132  0.3749284412725865  0.6250715587274132
  0.1249824656990471  0.8750175343009526  0.6243518025802206
  0.6246700099486571  0.8753686161897936  0.6246700099486571
  0.3753299900513430  0.3753299900513430  0.1246313838102067
  0.8750175343009526  0.3756481974197797  0.1249824656990471
  0.3756481974197797  0.8750175343009526  0.1249824656990471
  0.8706186511062357  0.8706186511062357  0.1293813488937643
  0.3749284412725865  0.3749284412725865  0.6250715587274132
  0.8753686161897936  0.3753299900513430  0.6246700099486571
  0.3753299900513430  0.8753686161897936  0.6246700099486571
  0.8750175343009526  0.8750175343009526  0.6243518025802206
  0.1249824656990471  0.1249824656990471  0.3756481974197797
  0.6246700099486571  0.1246313838102067  0.3753299900513430
  0.1246313838102067  0.6246700099486571  0.3753299900513430
  0.6250715587274132  0.6250715587274132  0.3749284412725865
  0.1293813488937643  0.1293813488937643  0.8706186511062357
  0.6243518025802206  0.1249824656990471  0.8750175343009526
  0.1249824656990471  0.6243518025802206  0.8750175343009526
  0.6246700099486571  0.6246700099486571  0.8753686161897936
  0.3753299900513430  0.1246313838102067  0.3753299900513430
  0.8750175343009526  0.1249824656990471  0.3756481974197797
  0.3749284412725865  0.6250715587274132  0.3749284412725865
  0.8753686161897936  0.6246700099486571  0.3753299900513430
  0.3756481974197797  0.1249824656990471  0.8750175343009526
  0.8706186511062357  0.1293813488937643  0.8706186511062357
  0.3753299900513430  0.6246700099486571  0.8753686161897936
  0.8750175343009526  0.6243518025802206  0.8750175343009526
  0.1246313838102067  0.3753299900513430  0.3753299900513430
  0.6250715587274132  0.3749284412725865  0.3749284412725865
  0.1249824656990471  0.8750175343009526  0.3756481974197797
  0.6246700099486571  0.8753686161897936  0.3753299900513430
  0.1249824656990471  0.3756481974197797  0.8750175343009526
  0.6246700099486571  0.3753299900513430  0.8753686161897936
  0.1293813488937643  0.8706186511062357  0.8706186511062357
  0.6243518025802206  0.8750175343009526  0.8750175343009526
  0.3749284412725865  0.3749284412725865  0.3749284412725865
  0.8753686161897936  0.3753299900513430  0.3753299900513430
  0.3753299900513430  0.8753686161897936  0.3753299900513430
  0.8750175343009526  0.8750175343009526  0.3756481974197797
  0.3753299900513430  0.3753299900513430  0.8753686161897936
  0.8750175343009526  0.3756481974197797  0.8750175343009526
  0.3756481974197797  0.8750175343009526  0.8750175343009526
  0.8706186511062357  0.8706186511062357  0.8706186511062357
