Sn Si Mg                                
   1.00000000000000     
    12.7473976876740025    0.0000000000000000    0.0000000000000000
     0.0000000000000000   12.7473976876740025    0.0000000000000000
     0.0000000000000000    0.0000000000000000   12.7473976876740025
   Sn   Si   Mg
     1    31    64
Direct
  0.0000000000000000  0.0000000000000000  0.0000000000000000
  0.5000000000000000  0.0000000000000000  0.0000000000000000
  0.0000000000000000  0.5000000000000000  0.0000000000000000
  0.5000000000000000  0.5000000000000000  0.0000000000000000
  0.0000000000000000  0.0000000000000000  0.5000000000000000
  0.5000000000000000  0.0000000000000000  0.5000000000000000
  0.0000000000000000  0.5000000000000000  0.5000000000000000
  0.5000000000000000  0.5000000000000000  0.5000000000000000
  0.2514029313239515  0.2514029313239515  0.0000000000000000
  0.7485970686760482  0.2514029313239515  0.0000000000000000
  0.2514029313239515  0.7485970686760482  0.0000000000000000
  0.7485970686760482  0.7485970686760482  0.0000000000000000
  0.2501266834446398  0.2501266834446398  0.5000000000000000
  0.7498733165553604  0.2501266834446398  0.5000000000000000
  0.2501266834446398  0.7498733165553604  0.5000000000000000
  0.7498733165553604  0.7498733165553604  0.5000000000000000
  0.2514029313239515  0.0000000000000000  0.2514029313239515
  0.7485970686760482  0.0000000000000000  0.2514029313239515
  0.2501266834446398  0.5000000000000000  0.2501266834446398
  0.7498733165553604  0.5000000000000000  0.2501266834446398
  0.2514029313239515  0.0000000000000000  0.7485970686760482
  0.7485970686760482  0.0000000000000000  0.7485970686760482
  0.2501266834446398  0.5000000000000000  0.7498733165553604
  0.7498733165553604  0.5000000000000000  0.7498733165553604
  0.0000000000000000  0.2514029313239515  0.2514029313239515
  0.5000000000000000  0.2501266834446398  0.2501266834446398
  0.0000000000000000  0.7485970686760482  0.2514029313239515
  0.5000000000000000  0.7498733165553604  0.2501266834446398
  0.0000000000000000  0.2514029313239515  0.7485970686760482
  0.5000000000000000  0.2501266834446398  0.7498733165553604
  0.0000000000000000  0.7485970686760482  0.7485970686760482
  0.5000000000000000  0.7498733165553604  0.7498733165553604
  0.1296083566102093  0.1296083566102093  0.1296083566102093
  0.6242135693259676  0.1250720288599369  0.1250720288599369
  0.1250720288599369  0.6242135693259676  0.1250720288599369
  0.6245527341913948  0.6245527341913948  0.1246954002854248
  0.1250720288599369  0.1250720288599369  0.6242135693259676
  0.6245527341913948  0.1246954002854248  0.6245527341913948
  0.1246954002854248  0.6245527341913948  0.6245527341913948
  0.6250823889054764  0.6250823889054764  0.6250823889054764
  0.3757864306740325  0.1250720288599369  0.1250720288599369
  0.8703916433897906  0.1296083566102093  0.1296083566102093
  0.3754472658086049  0.6245527341913948  0.1246954002854248
  0.8749279711400632  0.6242135693259676  0.1250720288599369
  0.3754472658086049  0.1246954002854248  0.6245527341913948
  0.8749279711400632  0.1250720288599369  0.6242135693259676
  0.3749176110945239  0.6250823889054764  0.6250823889054764
  0.8753045997145752  0.6245527341913948  0.6245527341913948
  0.1250720288599369  0.3757864306740325  0.1250720288599369
  0.6245527341913948  0.3754472658086049  0.1246954002854248
  0.1296083566102093  0.8703916433897906  0.1296083566102093
  0.6242135693259676  0.8749279711400632  0.1250720288599369
  0.1246954002854248  0.3754472658086049  0.6245527341913948
  0.6250823889054764  0.3749176110945239  0.6250823889054764
  0.1250720288599369  0.8749279711400632  0.6242135693259676
  0.6245527341913948  0.8753045997145752  0.6245527341913948
  0.3754472658086049  0.3754472658086049  0.1246954002854248
  0.8749279711400632  0.3757864306740325  0.1250720288599369
  0.3757864306740325  0.8749279711400632  0.1250720288599369
  0.8703916433897906  0.8703916433897906  0.1296083566102093
  0.3749176110945239  0.3749176110945239  0.6250823889054764
  0.8753045997145752  0.3754472658086049  0.6245527341913948
  0.3754472658086049  0.8753045997145752  0.6245527341913948
  0.8749279711400632  0.8749279711400632  0.6242135693259676
  0.1250720288599369  0.1250720288599369  0.3757864306740325
  0.6245527341913948  0.1246954002854248  0.3754472658086049
  0.1246954002854248  0.6245527341913948  0.3754472658086049
  0.6250823889054764  0.6250823889054764  0.3749176110945239
  0.1296083566102093  0.1296083566102093  0.8703916433897906
  0.6242135693259676  0.1250720288599369  0.8749279711400632
  0.1250720288599369  0.6242135693259676  0.8749279711400632
  0.6245527341913948  0.6245527341913948  0.8753045997145752
  0.3754472658086049  0.1246954002854248  0.3754472658086049
  0.8749279711400632  0.1250720288599369  0.3757864306740325
  0.3749176110945239  0.6250823889054764  0.3749176110945239
  0.8753045997145752  0.6245527341913948  0.3754472658086049
  0.3757864306740325  0.1250720288599369  0.8749279711400632
  0.8703916433897906  0.1296083566102093  0.8703916433897906
  0.3754472658086049  0.6245527341913948  0.8753045997145752
  0.8749279711400632  0.6242135693259676  0.8749279711400632
  0.1246954002854248  0.3754472658086049  0.3754472658086049
  0.6250823889054764  0.3749176110945239  0.3749176110945239
  0.1250720288599369  0.8749279711400632  0.3757864306740325
  0.6245527341913948  0.8753045997145752  0.3754472658086049
  0.1250720288599369  0.3757864306740325  0.8749279711400632
  0.6245527341913948  0.3754472658086049  0.8753045997145752
  0.1296083566102093  0.8703916433897906  0.8703916433897906
  0.6242135693259676  0.8749279711400632  0.8749279711400632
  0.3749176110945239  0.3749176110945239  0.3749176110945239
  0.8753045997145752  0.3754472658086049  0.3754472658086049
  0.3754472658086049  0.8753045997145752  0.3754472658086049
  0.8749279711400632  0.8749279711400632  0.3757864306740325
  0.3754472658086049  0.3754472658086049  0.8753045997145752
  0.8749279711400632  0.3757864306740325  0.8749279711400632
  0.3757864306740325  0.8749279711400632  0.8749279711400632
  0.8703916433897906  0.8703916433897906  0.8703916433897906
 
  0.00000000E+00  0.00000000E+00  0.00000000E+00
  0.00000000E+00  0.00000000E+00  0.00000000E+00
  0.00000000E+00  0.00000000E+00  0.00000000E+00
  0.00000000E+00  0.00000000E+00  0.00000000E+00
  0.00000000E+00  0.00000000E+00  0.00000000E+00
  0.00000000E+00  0.00000000E+00  0.00000000E+00
  0.00000000E+00  0.00000000E+00  0.00000000E+00
  0.00000000E+00  0.00000000E+00  0.00000000E+00
  0.00000000E+00  0.00000000E+00  0.00000000E+00
  0.00000000E+00  0.00000000E+00  0.00000000E+00
  0.00000000E+00  0.00000000E+00  0.00000000E+00
  0.00000000E+00  0.00000000E+00  0.00000000E+00
  0.00000000E+00  0.00000000E+00  0.00000000E+00
  0.00000000E+00  0.00000000E+00  0.00000000E+00
  0.00000000E+00  0.00000000E+00  0.00000000E+00
  0.00000000E+00  0.00000000E+00  0.00000000E+00
  0.00000000E+00  0.00000000E+00  0.00000000E+00
  0.00000000E+00  0.00000000E+00  0.00000000E+00
  0.00000000E+00  0.00000000E+00  0.00000000E+00
  0.00000000E+00  0.00000000E+00  0.00000000E+00
  0.00000000E+00  0.00000000E+00  0.00000000E+00
  0.00000000E+00  0.00000000E+00  0.00000000E+00
  0.00000000E+00  0.00000000E+00  0.00000000E+00
  0.00000000E+00  0.00000000E+00  0.00000000E+00
  0.00000000E+00  0.00000000E+00  0.00000000E+00
  0.00000000E+00  0.00000000E+00  0.00000000E+00
  0.00000000E+00  0.00000000E+00  0.00000000E+00
  0.00000000E+00  0.00000000E+00  0.00000000E+00
  0.00000000E+00  0.00000000E+00  0.00000000E+00
  0.00000000E+00  0.00000000E+00  0.00000000E+00
  0.00000000E+00  0.00000000E+00  0.00000000E+00
  0.00000000E+00  0.00000000E+00  0.00000000E+00
  0.00000000E+00  0.00000000E+00  0.00000000E+00
  0.00000000E+00  0.00000000E+00  0.00000000E+00
  0.00000000E+00  0.00000000E+00  0.00000000E+00
  0.00000000E+00  0.00000000E+00  0.00000000E+00
  0.00000000E+00  0.00000000E+00  0.00000000E+00
  0.00000000E+00  0.00000000E+00  0.00000000E+00
  0.00000000E+00  0.00000000E+00  0.00000000E+00
  0.00000000E+00  0.00000000E+00  0.00000000E+00
  0.00000000E+00  0.00000000E+00  0.00000000E+00
  0.00000000E+00  0.00000000E+00  0.00000000E+00
  0.00000000E+00  0.00000000E+00  0.00000000E+00
  0.00000000E+00  0.00000000E+00  0.00000000E+00
  0.00000000E+00  0.00000000E+00  0.00000000E+00
  0.00000000E+00  0.00000000E+00  0.00000000E+00
  0.00000000E+00  0.00000000E+00  0.00000000E+00
  0.00000000E+00  0.00000000E+00  0.00000000E+00
  0.00000000E+00  0.00000000E+00  0.00000000E+00
  0.00000000E+00  0.00000000E+00  0.00000000E+00
  0.00000000E+00  0.00000000E+00  0.00000000E+00
  0.00000000E+00  0.00000000E+00  0.00000000E+00
  0.00000000E+00  0.00000000E+00  0.00000000E+00
  0.00000000E+00  0.00000000E+00  0.00000000E+00
  0.00000000E+00  0.00000000E+00  0.00000000E+00
  0.00000000E+00  0.00000000E+00  0.00000000E+00
  0.00000000E+00  0.00000000E+00  0.00000000E+00
  0.00000000E+00  0.00000000E+00  0.00000000E+00
  0.00000000E+00  0.00000000E+00  0.00000000E+00
  0.00000000E+00  0.00000000E+00  0.00000000E+00
  0.00000000E+00  0.00000000E+00  0.00000000E+00
  0.00000000E+00  0.00000000E+00  0.00000000E+00
  0.00000000E+00  0.00000000E+00  0.00000000E+00
  0.00000000E+00  0.00000000E+00  0.00000000E+00
  0.00000000E+00  0.00000000E+00  0.00000000E+00
  0.00000000E+00  0.00000000E+00  0.00000000E+00
  0.00000000E+00  0.00000000E+00  0.00000000E+00
  0.00000000E+00  0.00000000E+00  0.00000000E+00
  0.00000000E+00  0.00000000E+00  0.00000000E+00
  0.00000000E+00  0.00000000E+00  0.00000000E+00
  0.00000000E+00  0.00000000E+00  0.00000000E+00
  0.00000000E+00  0.00000000E+00  0.00000000E+00
  0.00000000E+00  0.00000000E+00  0.00000000E+00
  0.00000000E+00  0.00000000E+00  0.00000000E+00
  0.00000000E+00  0.00000000E+00  0.00000000E+00
  0.00000000E+00  0.00000000E+00  0.00000000E+00
  0.00000000E+00  0.00000000E+00  0.00000000E+00
  0.00000000E+00  0.00000000E+00  0.00000000E+00
  0.00000000E+00  0.00000000E+00  0.00000000E+00
  0.00000000E+00  0.00000000E+00  0.00000000E+00
  0.00000000E+00  0.00000000E+00  0.00000000E+00
  0.00000000E+00  0.00000000E+00  0.00000000E+00
  0.00000000E+00  0.00000000E+00  0.00000000E+00
  0.00000000E+00  0.00000000E+00  0.00000000E+00
  0.00000000E+00  0.00000000E+00  0.00000000E+00
  0.00000000E+00  0.00000000E+00  0.00000000E+00
  0.00000000E+00  0.00000000E+00  0.00000000E+00
  0.00000000E+00  0.00000000E+00  0.00000000E+00
  0.00000000E+00  0.00000000E+00  0.00000000E+00
  0.00000000E+00  0.00000000E+00  0.00000000E+00
  0.00000000E+00  0.00000000E+00  0.00000000E+00
  0.00000000E+00  0.00000000E+00  0.00000000E+00
  0.00000000E+00  0.00000000E+00  0.00000000E+00
  0.00000000E+00  0.00000000E+00  0.00000000E+00
  0.00000000E+00  0.00000000E+00  0.00000000E+00
  0.00000000E+00  0.00000000E+00  0.00000000E+00
