NaCl222
11.3806030000
1.0000000000 0.000 0.000 
0.000 1.0000000000 0.000 
0.000 0.000 1.0000000000 
Na Cl 
32 32 
direct
0.000000000000000 0.000000000000000 0.000000000000000 
0.500000000000000 0.000000000000000 0.000000000000000 
0.000000000000000 0.500000000000000 0.000000000000000 
0.500000000000000 0.500000000000000 0.000000000000000 
0.000000000000000 0.000000000000000 0.500000000000000 
0.500000000000000 0.000000000000000 0.500000000000000 
0.000000000000000 0.500000000000000 0.500000000000000 
0.500000000000000 0.500000000000000 0.500000000000000 
0.000000000000000 0.249999995606560 0.249999995606560 
0.500000000000000 0.249999995606560 0.249999995606560 
0.000000000000000 0.749999995606560 0.249999995606560 
0.500000000000000 0.749999995606560 0.249999995606560 
0.000000000000000 0.249999995606560 0.749999995606560 
0.500000000000000 0.249999995606560 0.749999995606560 
0.000000000000000 0.749999995606560 0.749999995606560 
0.500000000000000 0.749999995606560 0.749999995606560 
0.249999995606560 0.000000000000000 0.249999995606560 
0.749999995606560 0.000000000000000 0.249999995606560 
0.249999995606560 0.500000000000000 0.249999995606560 
0.749999995606560 0.500000000000000 0.249999995606560 
0.249999995606560 0.000000000000000 0.749999995606560 
0.749999995606560 0.000000000000000 0.749999995606560 
0.249999995606560 0.500000000000000 0.749999995606560 
0.749999995606560 0.500000000000000 0.749999995606560 
0.249999995606560 0.249999995606560 0.000000000000000 
0.749999995606560 0.249999995606560 0.000000000000000 
0.249999995606560 0.749999995606560 0.000000000000000 
0.749999995606560 0.749999995606560 0.000000000000000 
0.249999995606560 0.249999995606560 0.500000000000000 
0.749999995606560 0.249999995606560 0.500000000000000 
0.249999995606560 0.749999995606560 0.500000000000000 
0.749999995606560 0.749999995606560 0.500000000000000 
0.249999995606560 0.249999995606560 0.249999995606560 
0.749999995606560 0.249999995606560 0.249999995606560 
0.249999995606560 0.749999995606560 0.249999995606560 
0.749999995606560 0.749999995606560 0.249999995606560 
0.249999995606560 0.249999995606560 0.749999995606560 
0.749999995606560 0.249999995606560 0.749999995606560 
0.249999995606560 0.749999995606560 0.749999995606560 
0.749999995606560 0.749999995606560 0.749999995606560 
0.249999995606560 0.000000000000000 0.000000000000000 
0.749999995606560 0.000000000000000 0.000000000000000 
0.249999995606560 0.500000000000000 0.000000000000000 
0.749999995606560 0.500000000000000 0.000000000000000 
0.249999995606560 0.000000000000000 0.500000000000000 
0.749999995606560 0.000000000000000 0.500000000000000 
0.249999995606560 0.500000000000000 0.500000000000000 
0.749999995606560 0.500000000000000 0.500000000000000 
0.000000000000000 0.249999995606560 0.000000000000000 
0.500000000000000 0.249999995606560 0.000000000000000 
0.000000000000000 0.749999995606560 0.000000000000000 
0.500000000000000 0.749999995606560 0.000000000000000 
0.000000000000000 0.249999995606560 0.500000000000000 
0.500000000000000 0.249999995606560 0.500000000000000 
0.000000000000000 0.749999995606560 0.500000000000000 
0.500000000000000 0.749999995606560 0.500000000000000 
0.000000000000000 0.000000000000000 0.249999995606560 
0.500000000000000 0.000000000000000 0.249999995606560 
0.000000000000000 0.500000000000000 0.249999995606560 
0.500000000000000 0.500000000000000 0.249999995606560 
0.000000000000000 0.000000000000000 0.749999995606560 
0.500000000000000 0.000000000000000 0.749999995606560 
0.000000000000000 0.500000000000000 0.749999995606560 
0.500000000000000 0.500000000000000 0.749999995606560 
